files/upTests/_tuples_of_matrix/withFuncTuples/0001.eprime.solution
language ESSENCE' 1.0
$ minion Nodes: 2
$ minion TotalTime: 0.000424
$ Savile Row TotalTime: 0.132
letting pain_tuple1_tuple3_tuple1 be [5]
letting pain_tuple1_tuple4_tuple1 be [7]
letting pain_tuple1_tuple4_tuple2 be [3]
letting pain_tuple1_tuple1 be [2]
letting pain_tuple1_tuple2_Matrix1D be [[1, -1]]
